c pcminimize - minimizing a CNF with respect to propagation completeness by iterative removing of absorbed clauses.
c Petr Kucera, 2016-2021
c Version 2.7, revision 59, git hash 4910a71, date 2024-07-16 20:17:42 +0200
p cnf 327 388
251 -252 0
252 -253 0
188 -253 0
-98 -255 0
254 -255 0
255 -256 0
-188 -256 0
-63 -258 0
-152 -258 0
257 -259 0
258 -259 0
88 -260 0
63 -261 0
152 -261 0
261 -262 0
79 -262 0
152 -263 0
63 -263 0
264 -265 0
-63 -265 0
263 265 -266 0
266 -267 0
-79 -267 0
268 -270 0
269 -270 0
251 -270 0
-88 -271 0
204 -273 0
274 -275 0
-204 -275 0
277 -278 0
136 -278 0
-170 -279 0
-136 -279 0
278 279 -280 0
280 -281 0
240 -281 0
136 -282 0
170 -282 0
282 -283 0
-240 -283 0
284 -285 0
16 -285 0
-136 -286 0
-170 -286 0
286 -287 0
-16 -287 0
289 -291 0
290 -291 0
291 -292 0
142 -292 0
34 -293 0
293 -294 0
-142 -294 0
295 -296 0
94 -296 0
290 -297 0
142 -297 0
34 -298 0
-142 -298 0
297 298 -299 0
299 -300 0
300 -301 0
-94 -301 0
304 -309 0
305 -309 0
306 -309 0
307 -309 0
308 -309 0
272 -310 0
276 -310 0
288 -310 0
302 -310 0
309 -310 0
1 0
2 0
-3 0
-4 0
-5 0
-6 0
-7 0
8 0
9 0
-10 0
-11 0
12 0
13 0
14 0
15 0
-17 0
-18 0
19 0
-20 0
-21 0
22 0
-23 0
24 0
-25 0
26 0
-27 0
28 0
29 0
30 0
-31 0
-32 0
33 0
-35 0
-36 0
37 0
-38 0
-39 0
-41 0
-42 0
-43 0
-44 0
-45 0
46 0
47 0
-48 0
49 0
50 0
-51 0
-52 0
-53 0
54 0
55 0
-56 0
-57 0
58 0
59 0
60 0
61 0
62 0
-64 0
-65 0
-66 0
67 0
-69 0
70 0
-71 0
-72 0
-73 0
-74 0
-75 0
77 0
-78 0
80 0
-81 0
-82 0
-83 0
84 0
-85 0
86 0
87 0
89 0
90 0
91 0
-92 0
93 0
-95 0
96 0
97 0
99 0
-100 0
-101 0
-102 0
103 0
104 0
-105 0
-106 0
107 0
-108 0
-109 0
111 0
-112 0
113 0
114 0
-115 0
116 0
-117 0
118 0
-119 0
-120 0
121 0
-123 0
124 0
125 0
-126 0
-127 0
-128 0
129 0
130 0
-131 0
132 0
133 0
134 0
-135 0
-137 0
-138 0
139 0
140 0
141 0
143 0
144 0
145 0
146 0
147 0
-148 0
-149 0
150 0
151 0
153 0
154 0
-155 0
-156 0
157 0
159 0
-160 0
-161 0
-162 0
-163 0
-164 0
165 0
166 0
167 0
-168 0
169 0
171 0
172 0
173 0
174 0
-175 0
176 0
177 0
178 0
179 0
180 0
181 0
-182 0
183 0
184 0
185 0
-186 0
187 0
-189 0
-190 0
191 0
-192 0
-193 0
-194 0
-195 0
-196 0
197 0
-198 0
-199 0
200 0
-201 0
202 0
203 0
205 0
206 0
207 0
208 0
209 0
210 0
211 0
-212 0
-213 0
214 0
215 0
216 0
-217 0
-218 0
219 0
220 0
-221 0
222 0
223 0
-224 0
225 0
226 0
227 0
228 0
229 0
-230 0
-233 0
234 0
235 0
236 0
-237 0
-238 0
239 0
241 0
242 0
-243 0
-244 0
245 0
246 0
-247 0
-248 0
-249 0
250 0
-325 326 0
-318 319 0
115 325 0
-322 323 0
-315 316 0
-170 277 282 0
-266 267 0
-206 324 0
94 301 0
-299 300 0
-263 266 0
-94 296 0
-295 296 0
-265 266 0
142 294 298 0
-251 252 270 0
-326 327 0
-292 295 0
-291 292 0
63 258 265 0
-136 278 282 0
-254 255 0
-79 262 0
-289 291 0
-269 270 0
-274 275 0
-59 315 0
76 289 0
-286 287 0
152 258 264 0
-284 285 0
240 283 0
-63 261 263 0
-294 295 0
-278 280 0
-313 314 0
-270 271 0
-298 299 0
-264 265 0
-258 259 0
-257 259 0
-142 292 297 0
34 290 0
136 279 286 0
-253 257 0
-204 273 0
-259 260 0
-293 294 0
231 254 0
-255 256 0
-300 301 0
-252 253 0
-256 257 0
79 258 267 0
-262 268 0
-68 274 0
-34 290 293 298 0
-267 268 0
-268 270 0
-16 285 0
-281 284 0
-279 280 0
-290 291 297 0
204 275 0
-317 318 0
-277 278 0
-240 281 286 0
-282 283 0
-297 299 0
-261 262 0
16 287 0
-188 253 269 0
188 256 0
-320 321 0
-280 281 0
-76 289 293 300 0
20 320 0
-98 251 0
-303 310 0
-178 317 0
98 251 255 0
247 311 0
-311 313 0
243 322 0
-165 303 0
75 312 0
